p cnf 225 1
225 0
w 1 0.776671
w 2 1 0
w 2 -1 1
w 3 2 1
w 3 -2 0
w 4 3 0.804312
w 4 -3 0.537792
w 5 4 0.35861
w 5 -4 0.629426
w 6 5 1
w 6 -5 0
w 7 6 1
w 7 -6 0
w 8 7 0.157427
w 8 -7 0.936118
w 9 8 0
w 9 -8 1
w 10 9 0
w 10 -9 1
w 11 10 0
w 11 -10 1
w 12 11 0
w 12 -11 1
w 13 12 0.692344
w 13 -12 0.365316
w 14 13 0
w 14 -13 1
w 15 14 0
w 15 -14 1
w 16 1 0.550952
w 16 -1 0.120384
w 17 16 2 1
w 17 16 -2 0
w 17 -16 2 1
w 17 -16 -2 0
w 18 17 3 0
w 18 17 -3 0
w 18 -17 3 1
w 18 -17 -3 0
w 19 18 4 0.356948
w 19 18 -4 0.86825
w 19 -18 4 0.700544
w 19 -18 -4 0.819224
w 20 19 5 0.916637
w 20 19 -5 0.454186
w 20 -19 5 0.893425
w 20 -19 -5 0.97988
w 21 20 6 1
w 21 20 -6 1
w 21 -20 6 1
w 21 -20 -6 0
w 22 21 7 1
w 22 21 -7 1
w 22 -21 7 1
w 22 -21 -7 0
w 23 22 8 0.3934
w 23 22 -8 0.932364
w 23 -22 8 0.796787
w 23 -22 -8 0.107275
w 24 23 9 0
w 24 23 -9 1
w 24 -23 9 1
w 24 -23 -9 0
w 25 24 10 0
w 25 24 -10 0
w 25 -24 10 1
w 25 -24 -10 0
w 26 25 11 0.181
w 26 25 -11 0.484318
w 26 -25 11 0.676724
w 26 -25 -11 0.160879
w 27 26 12 0.262493
w 27 26 -12 0.506076
w 27 -26 12 0.483328
w 27 -26 -12 0.364533
w 28 27 13 0.637131
w 28 27 -13 0.444799
w 28 -27 13 0.0313951
w 28 -27 -13 0.911319
w 29 28 14 0
w 29 28 -14 1
w 29 -28 14 0
w 29 -28 -14 0
w 30 29 15 0
w 30 29 -15 1
w 30 -29 15 1
w 30 -29 -15 0
w 31 16 0.440648
w 31 -16 0.317017
w 32 31 17 0.705011
w 32 31 -17 0.347149
w 32 -31 17 0.528738
w 32 -31 -17 0.886011
w 33 32 18 0.205462
w 33 32 -18 0.0468901
w 33 -32 18 0.614427
w 33 -32 -18 0.467956
w 34 33 19 0.0977542
w 34 33 -19 0.832489
w 34 -33 19 0.546225
w 34 -33 -19 0.734885
w 35 34 20 1
w 35 34 -20 0
w 35 -34 20 0
w 35 -34 -20 1
w 36 35 21 0
w 36 35 -21 1
w 36 -35 21 0
w 36 -35 -21 0
w 37 36 22 0.430367
w 37 36 -22 0.476797
w 37 -36 22 0.547685
w 37 -36 -22 0.871015
w 38 37 23 0.293124
w 38 37 -23 0.576026
w 38 -37 23 0.140963
w 38 -37 -23 0.821862
w 39 38 24 1
w 39 38 -24 0
w 39 -38 24 0
w 39 -38 -24 1
w 40 39 25 0
w 40 39 -25 1
w 40 -39 25 0
w 40 -39 -25 1
w 41 40 26 0
w 41 40 -26 0
w 41 -40 26 1
w 41 -40 -26 0
w 42 41 27 0.0231131
w 42 41 -27 0.722639
w 42 -41 27 0.109125
w 42 -41 -27 0.3938
w 43 42 28 0.539492
w 43 42 -28 0.870597
w 43 -42 28 0.18788
w 43 -42 -28 0.410508
w 44 43 29 0.481004
w 44 43 -29 0.986534
w 44 -43 29 0.805374
w 44 -43 -29 0.302865
w 45 44 30 1
w 45 44 -30 1
w 45 -44 30 1
w 45 -44 -30 0
w 46 31 0.0193903
w 46 -31 0.0492723
w 47 46 32 0
w 47 46 -32 0
w 47 -46 32 0
w 47 -46 -32 1
w 48 47 33 0.66287
w 48 47 -33 0.00139947
w 48 -47 33 0.0900561
w 48 -47 -33 0.685983
w 49 48 34 0.199181
w 49 48 -34 0.079783
w 49 -48 34 0.364232
w 49 -48 -34 0.738673
w 50 49 35 0.552112
w 50 49 -35 0.149181
w 50 -49 35 0.614791
w 50 -49 -35 0.0331156
w 51 50 36 1
w 51 50 -36 1
w 51 -50 36 1
w 51 -50 -36 0
w 52 51 37 0.541783
w 52 51 -37 0.562631
w 52 -51 37 0.491641
w 52 -51 -37 0.561173
w 53 52 38 0.644879
w 53 52 -38 0.188681
w 53 -52 38 0.0806714
w 53 -52 -38 0.403174
w 54 53 39 0
w 54 53 -39 0
w 54 -53 39 1
w 54 -53 -39 1
w 55 54 40 0.727365
w 55 54 -40 0.904377
w 55 -54 40 0.831809
w 55 -54 -40 0.0915975
w 56 55 41 0.782189
w 56 55 -41 0.64371
w 56 -55 41 0.792231
w 56 -55 -41 0.39698
w 57 56 42 0.927946
w 57 56 -42 0.817145
w 57 -56 42 0.0128063
w 57 -56 -42 0.512231
w 58 57 43 1
w 58 57 -43 0
w 58 -57 43 1
w 58 -57 -43 0
w 59 58 44 0.189648
w 59 58 -44 0.815498
w 59 -58 44 0.803869
w 59 -58 -44 0.27032
w 60 59 45 1
w 60 59 -45 0
w 60 -59 45 0
w 60 -59 -45 0
w 61 46 0.0367409
w 61 -46 0.536489
w 62 61 47 0
w 62 61 -47 1
w 62 -61 47 1
w 62 -61 -47 1
w 63 62 48 1
w 63 62 -48 0
w 63 -62 48 1
w 63 -62 -48 0
w 64 63 49 0.961428
w 64 63 -49 0.370492
w 64 -63 49 0.879979
w 64 -63 -49 0.640405
w 65 64 50 0
w 65 64 -50 0
w 65 -64 50 1
w 65 -64 -50 0
w 66 65 51 0.843564
w 66 65 -51 0.917692
w 66 -65 51 0.845192
w 66 -65 -51 0.649361
w 67 66 52 0.129907
w 67 66 -52 0.458485
w 67 -66 52 0.393807
w 67 -66 -52 0.166648
w 68 67 53 0.88884
w 68 67 -53 0.0351979
w 68 -67 53 0.623061
w 68 -67 -53 0.0269238
w 69 68 54 0.894857
w 69 68 -54 0.957238
w 69 -68 54 0.733656
w 69 -68 -54 0.843479
w 70 69 55 0.598521
w 70 69 -55 0.804907
w 70 -69 55 0.185991
w 70 -69 -55 0.4785
w 71 70 56 1
w 71 70 -56 0
w 71 -70 56 1
w 71 -70 -56 1
w 72 71 57 0.882856
w 72 71 -57 0.493756
w 72 -71 57 0.501288
w 72 -71 -57 0.728048
w 73 72 58 0
w 73 72 -58 0
w 73 -72 58 1
w 73 -72 -58 0
w 74 73 59 1
w 74 73 -59 1
w 74 -73 59 0
w 74 -73 -59 1
w 75 74 60 0.745738
w 75 74 -60 0.114495
w 75 -74 60 0.571249
w 75 -74 -60 0.479394
w 76 61 0.386748
w 76 -61 0.0779144
w 77 76 62 0.572739
w 77 76 -62 0.556414
w 77 -76 62 0.208192
w 77 -76 -62 0.183237
w 78 77 63 0
w 78 77 -63 0
w 78 -77 63 1
w 78 -77 -63 0
w 79 78 64 1
w 79 78 -64 0
w 79 -78 64 1
w 79 -78 -64 0
w 80 79 65 0.0719052
w 80 79 -65 0.580209
w 80 -79 65 0.957988
w 80 -79 -65 0.668482
w 81 80 66 1
w 81 80 -66 1
w 81 -80 66 1
w 81 -80 -66 0
w 82 81 67 1
w 82 81 -67 1
w 82 -81 67 1
w 82 -81 -67 0
w 83 82 68 0
w 83 82 -68 1
w 83 -82 68 0
w 83 -82 -68 0
w 84 83 69 1
w 84 83 -69 0
w 84 -83 69 0
w 84 -83 -69 0
w 85 84 70 0.655896
w 85 84 -70 0.0236431
w 85 -84 70 0.819003
w 85 -84 -70 0.126199
w 86 85 71 0.752388
w 86 85 -71 0.198104
w 86 -85 71 0.485814
w 86 -85 -71 0.710376
w 87 86 72 0.65311
w 87 86 -72 0.728165
w 87 -86 72 0.754706
w 87 -86 -72 0.434416
w 88 87 73 1
w 88 87 -73 0
w 88 -87 73 0
w 88 -87 -73 0
w 89 88 74 0.0554453
w 89 88 -74 0.441381
w 89 -88 74 0.838321
w 89 -88 -74 0.932694
w 90 89 75 0
w 90 89 -75 1
w 90 -89 75 1
w 90 -89 -75 0
w 91 76 0.512805
w 91 -76 0.318209
w 92 91 77 0.331807
w 92 91 -77 0.444408
w 92 -91 77 0.677949
w 92 -91 -77 0.0841952
w 93 92 78 0.163763
w 93 92 -78 0.794571
w 93 -92 78 0.509099
w 93 -92 -78 0.816873
w 94 93 79 0.263805
w 94 93 -79 0.251289
w 94 -93 79 0.0144264
w 94 -93 -79 0.021126
w 95 94 80 1
w 95 94 -80 0
w 95 -94 80 1
w 95 -94 -80 1
w 96 95 81 1
w 96 95 -81 0
w 96 -95 81 0
w 96 -95 -81 1
w 97 96 82 1
w 97 96 -82 1
w 97 -96 82 1
w 97 -96 -82 0
w 98 97 83 0.560802
w 98 97 -83 0.167306
w 98 -97 83 0.161394
w 98 -97 -83 0.238751
w 99 98 84 1
w 99 98 -84 0
w 99 -98 84 1
w 99 -98 -84 0
w 100 99 85 0
w 100 99 -85 0
w 100 -99 85 1
w 100 -99 -85 1
w 101 100 86 0.508937
w 101 100 -86 0.332271
w 101 -100 86 0.336972
w 101 -100 -86 0.0734764
w 102 101 87 0
w 102 101 -87 1
w 102 -101 87 0
w 102 -101 -87 0
w 103 102 88 0
w 103 102 -88 1
w 103 -102 88 1
w 103 -102 -88 1
w 104 103 89 1
w 104 103 -89 0
w 104 -103 89 1
w 104 -103 -89 1
w 105 104 90 0.293861
w 105 104 -90 0.904211
w 105 -104 90 0.693921
w 105 -104 -90 0.606866
w 106 91 1
w 106 -91 0
w 107 106 92 0
w 107 106 -92 0
w 107 -106 92 1
w 107 -106 -92 1
w 108 107 93 0
w 108 107 -93 1
w 108 -107 93 0
w 108 -107 -93 0
w 109 108 94 0.188918
w 109 108 -94 0.706824
w 109 -108 94 0.865824
w 109 -108 -94 0.102605
w 110 109 95 1
w 110 109 -95 1
w 110 -109 95 1
w 110 -109 -95 0
w 111 110 96 1
w 111 110 -96 1
w 111 -110 96 0
w 111 -110 -96 0
w 112 111 97 0.473604
w 112 111 -97 0.067529
w 112 -111 97 0.196644
w 112 -111 -97 0.597203
w 113 112 98 1
w 113 112 -98 0
w 113 -112 98 1
w 113 -112 -98 1
w 114 113 99 0
w 114 113 -99 1
w 114 -113 99 0
w 114 -113 -99 0
w 115 114 100 0.1244
w 115 114 -100 0.858362
w 115 -114 100 0.62331
w 115 -114 -100 0.990224
w 116 115 101 0.723678
w 116 115 -101 0.467624
w 116 -115 101 0.765717
w 116 -115 -101 0.0530884
w 117 116 102 1
w 117 116 -102 1
w 117 -116 102 1
w 117 -116 -102 0
w 118 117 103 1
w 118 117 -103 1
w 118 -117 103 0
w 118 -117 -103 1
w 119 118 104 0.736245
w 119 118 -104 0.665088
w 119 -118 104 0.726463
w 119 -118 -104 0.898176
w 120 119 105 0.0809182
w 120 119 -105 0.178689
w 120 -119 105 0.431152
w 120 -119 -105 0.750362
w 121 106 0
w 121 -106 1
w 122 121 107 0.718487
w 122 121 -107 0.545776
w 122 -121 107 0.569691
w 122 -121 -107 0.442165
w 123 122 108 1
w 123 122 -108 1
w 123 -122 108 1
w 123 -122 -108 0
w 124 123 109 1
w 124 123 -109 0
w 124 -123 109 1
w 124 -123 -109 0
w 125 124 110 0
w 125 124 -110 0
w 125 -124 110 1
w 125 -124 -110 0
w 126 125 111 0.923242
w 126 125 -111 0.00611421
w 126 -125 111 0.546511
w 126 -125 -111 0.00416025
w 127 126 112 1
w 127 126 -112 1
w 127 -126 112 0
w 127 -126 -112 1
w 128 127 113 1
w 128 127 -113 1
w 128 -127 113 1
w 128 -127 -113 0
w 129 128 114 0
w 129 128 -114 1
w 129 -128 114 0
w 129 -128 -114 1
w 130 129 115 1
w 130 129 -115 1
w 130 -129 115 0
w 130 -129 -115 0
w 131 130 116 1
w 131 130 -116 0
w 131 -130 116 1
w 131 -130 -116 1
w 132 131 117 0.965208
w 132 131 -117 0.403099
w 132 -131 117 0.737379
w 132 -131 -117 0.511719
w 133 132 118 1
w 133 132 -118 1
w 133 -132 118 0
w 133 -132 -118 0
w 134 133 119 1
w 134 133 -119 1
w 134 -133 119 0
w 134 -133 -119 1
w 135 134 120 0.193975
w 135 134 -120 0.726312
w 135 -134 120 0.577147
w 135 -134 -120 0.573351
w 136 121 1
w 136 -121 0
w 137 136 122 0.17227
w 137 136 -122 0.423672
w 137 -136 122 0.0608474
w 137 -136 -122 0.629096
w 138 137 123 0.684174
w 138 137 -123 0.00756915
w 138 -137 123 0.186607
w 138 -137 -123 0.415439
w 139 138 124 0.589706
w 139 138 -124 0.152819
w 139 -138 124 0.484496
w 139 -138 -124 0.996966
w 140 139 125 1
w 140 139 -125 0
w 140 -139 125 1
w 140 -139 -125 0
w 141 140 126 0.477795
w 141 140 -126 0.0980588
w 141 -140 126 0.141743
w 141 -140 -126 0.119057
w 142 141 127 0
w 142 141 -127 1
w 142 -141 127 0
w 142 -141 -127 0
w 143 142 128 1
w 143 142 -128 0
w 143 -142 128 1
w 143 -142 -128 1
w 144 143 129 0.613757
w 144 143 -129 0.419621
w 144 -143 129 0.84047
w 144 -143 -129 0.800364
w 145 144 130 0.813247
w 145 144 -130 0.390071
w 145 -144 130 0.987879
w 145 -144 -130 0.297743
w 146 145 131 0
w 146 145 -131 1
w 146 -145 131 0
w 146 -145 -131 1
w 147 146 132 0
w 147 146 -132 1
w 147 -146 132 1
w 147 -146 -132 0
w 148 147 133 0.658186
w 148 147 -133 0.239359
w 148 -147 133 0.633101
w 148 -147 -133 0.523572
w 149 148 134 1
w 149 148 -134 1
w 149 -148 134 1
w 149 -148 -134 0
w 150 149 135 0.307598
w 150 149 -135 0.637201
w 150 -149 135 0.35324
w 150 -149 -135 0.148067
w 151 136 0
w 151 -136 1
w 152 151 137 0.827636
w 152 151 -137 0.17618
w 152 -151 137 0.259057
w 152 -151 -137 0.214673
w 153 152 138 1
w 153 152 -138 1
w 153 -152 138 0
w 153 -152 -138 0
w 154 153 139 0.396948
w 154 153 -139 0.164922
w 154 -153 139 0.361322
w 154 -153 -139 0.333845
w 155 154 140 0.600681
w 155 154 -140 0.966946
w 155 -154 140 0.34668
w 155 -154 -140 0.871573
w 156 155 141 0
w 156 155 -141 1
w 156 -155 141 0
w 156 -155 -141 0
w 157 156 142 0.83171
w 157 156 -142 0.801935
w 157 -156 142 0.181594
w 157 -156 -142 0.0200111
w 158 157 143 0.00922972
w 158 157 -143 0.196191
w 158 -157 143 0.0223059
w 158 -157 -143 0.223902
w 159 158 144 0
w 159 158 -144 1
w 159 -158 144 1
w 159 -158 -144 0
w 160 159 145 0.411307
w 160 159 -145 0.516674
w 160 -159 145 0.335699
w 160 -159 -145 0.745152
w 161 160 146 1
w 161 160 -146 0
w 161 -160 146 1
w 161 -160 -146 1
w 162 161 147 0.231314
w 162 161 -147 0.154224
w 162 -161 147 0.902308
w 162 -161 -147 0.709784
w 163 162 148 0.646336
w 163 162 -148 0.541494
w 163 -162 148 0.610027
w 163 -162 -148 0.82793
w 164 163 149 0.373277
w 164 163 -149 0.83716
w 164 -163 149 0.757696
w 164 -163 -149 0.395583
w 165 164 150 1
w 165 164 -150 1
w 165 -164 150 1
w 165 -164 -150 0
w 166 151 0
w 166 -151 1
w 167 166 152 0.816991
w 167 166 -152 0.355498
w 167 -166 152 0.363766
w 167 -166 -152 0.156774
w 168 167 153 1
w 168 167 -153 1
w 168 -167 153 0
w 168 -167 -153 1
w 169 168 154 1
w 169 168 -154 1
w 169 -168 154 1
w 169 -168 -154 0
w 170 169 155 1
w 170 169 -155 1
w 170 -169 155 0
w 170 -169 -155 0
w 171 170 156 0
w 171 170 -156 1
w 171 -170 156 0
w 171 -170 -156 0
w 172 171 157 0.389598
w 172 171 -157 0.191562
w 172 -171 157 0.0452837
w 172 -171 -157 0.689915
w 173 172 158 0
w 173 172 -158 1
w 173 -172 158 0
w 173 -172 -158 1
w 174 173 159 0.858737
w 174 173 -159 0.103528
w 174 -173 159 0.506917
w 174 -173 -159 0.958568
w 175 174 160 0.581466
w 175 174 -160 0.212623
w 175 -174 160 0.748526
w 175 -174 -160 0.3658
w 176 175 161 1
w 176 175 -161 0
w 176 -175 161 0
w 176 -175 -161 0
w 177 176 162 0.992393
w 177 176 -162 0.501514
w 177 -176 162 0.223988
w 177 -176 -162 0.433426
w 178 177 163 0.0619644
w 178 177 -163 0.823024
w 178 -177 163 0.839218
w 178 -177 -163 0.107248
w 179 178 164 0.0505791
w 179 178 -164 0.771146
w 179 -178 164 0.0198457
w 179 -178 -164 0.617439
w 180 179 165 0.683526
w 180 179 -165 0.476176
w 180 -179 165 0.902338
w 180 -179 -165 0.190443
w 181 166 0
w 181 -166 1
w 182 181 167 0.647367
w 182 181 -167 0.625737
w 182 -181 167 0.137709
w 182 -181 -167 0.922136
w 183 182 168 0.829336
w 183 182 -168 0.869079
w 183 -182 168 0.210688
w 183 -182 -168 0.408296
w 184 183 169 0.712203
w 184 183 -169 0.632283
w 184 -183 169 0.294898
w 184 -183 -169 0.359858
w 185 184 170 0.117922
w 185 184 -170 0.199076
w 185 -184 170 0.801496
w 185 -184 -170 0.630861
w 186 185 171 0
w 186 185 -171 0
w 186 -185 171 1
w 186 -185 -171 1
w 187 186 172 1
w 187 186 -172 0
w 187 -186 172 1
w 187 -186 -172 1
w 188 187 173 1
w 188 187 -173 1
w 188 -187 173 0
w 188 -187 -173 1
w 189 188 174 0
w 189 188 -174 0
w 189 -188 174 1
w 189 -188 -174 1
w 190 189 175 0.0780668
w 190 189 -175 0.493881
w 190 -189 175 0.304209
w 190 -189 -175 0.372965
w 191 190 176 0.998456
w 191 190 -176 0.490887
w 191 -190 176 0.0528149
w 191 -190 -176 0.799952
w 192 191 177 0
w 192 191 -177 0
w 192 -191 177 0
w 192 -191 -177 1
w 193 192 178 0.106689
w 193 192 -178 0.512832
w 193 -192 178 0.0178341
w 193 -192 -178 0.631365
w 194 193 179 0
w 194 193 -179 1
w 194 -193 179 0
w 194 -193 -179 1
w 195 194 180 0
w 195 194 -180 1
w 195 -194 180 1
w 195 -194 -180 1
w 196 181 1
w 196 -181 0
w 197 196 182 0
w 197 196 -182 1
w 197 -196 182 1
w 197 -196 -182 0
w 198 197 183 0.222255
w 198 197 -183 0.698673
w 198 -197 183 0.400417
w 198 -197 -183 0.344004
w 199 198 184 0
w 199 198 -184 0
w 199 -198 184 0
w 199 -198 -184 1
w 200 199 185 0
w 200 199 -185 1
w 200 -199 185 1
w 200 -199 -185 0
w 201 200 186 0.782465
w 201 200 -186 0.69061
w 201 -200 186 0.649294
w 201 -200 -186 0.144709
w 202 201 187 0.165855
w 202 201 -187 0.770583
w 202 -201 187 0.0346869
w 202 -201 -187 0.464093
w 203 202 188 1
w 203 202 -188 0
w 203 -202 188 1
w 203 -202 -188 0
w 204 203 189 0.270856
w 204 203 -189 0.346713
w 204 -203 189 0.600744
w 204 -203 -189 0.671273
w 205 204 190 0.601887
w 205 204 -190 0.444284
w 205 -204 190 0.807177
w 205 -204 -190 0.772594
w 206 205 191 0.0303266
w 206 205 -191 0.456132
w 206 -205 191 0.496231
w 206 -205 -191 0.884841
w 207 206 192 0
w 207 206 -192 1
w 207 -206 192 0
w 207 -206 -192 1
w 208 207 193 0.875478
w 208 207 -193 0.0151041
w 208 -207 193 0.582599
w 208 -207 -193 0.910164
w 209 208 194 0
w 209 208 -194 1
w 209 -208 194 0
w 209 -208 -194 1
w 210 209 195 1
w 210 209 -195 0
w 210 -209 195 1
w 210 -209 -195 1
w 211 196 0
w 211 -196 1
w 212 211 197 0.707786
w 212 211 -197 0.272318
w 212 -211 197 0.612705
w 212 -211 -197 0.669126
w 213 212 198 1
w 213 212 -198 1
w 213 -212 198 0
w 213 -212 -198 0
w 214 213 199 1
w 214 213 -199 0
w 214 -213 199 1
w 214 -213 -199 0
w 215 214 200 0
w 215 214 -200 0
w 215 -214 200 1
w 215 -214 -200 0
w 216 215 201 0.709377
w 216 215 -201 0.444273
w 216 -215 201 0.221762
w 216 -215 -201 0.137088
w 217 216 202 1
w 217 216 -202 0
w 217 -216 202 0
w 217 -216 -202 0
w 218 217 203 1
w 218 217 -203 1
w 218 -217 203 0
w 218 -217 -203 0
w 219 218 204 0.841631
w 219 218 -204 0.619763
w 219 -218 204 0.139103
w 219 -218 -204 0.340985
w 220 219 205 0.993895
w 220 219 -205 0.961466
w 220 -219 205 0.199637
w 220 -219 -205 0.660703
w 221 220 206 0
w 221 220 -206 0
w 221 -220 206 0
w 221 -220 -206 1
w 222 221 207 0.58244
w 222 221 -207 0.0322619
w 222 -221 207 0.710012
w 222 -221 -207 0.664192
w 223 222 208 0.621525
w 223 222 -208 0.984169
w 223 -222 208 0.923746
w 223 -222 -208 0.998178
w 224 223 209 0
w 224 223 -209 0
w 224 -223 209 0
w 224 -223 -209 1
w 225 224 210 0.783192
w 225 224 -210 0.73787
w 225 -224 210 0.0996663
w 225 -224 -210 0.768267